p cnf 3 4
c p show 1 2 3 0
c p weight -3 0.36787944117144233
c p weight -2 0.36787944117144233
c p weight -1 0.36787944117144233
c p weight 1 2.718281828459045
c p weight 2 2.718281828459045
c p weight 3 2.718281828459045
1 -2 -3 0
1 2 3 0
-1 2 -3 0
-1 -2 3 0
